presolving:
(round 1, fast)       23250 del vars, 162750 del conss, 0 add conss, 236939 chg bounds, 0 chg sides, 27 chg coeffs, 0 upgd conss, 0 impls, 0 clqs
(round 2, fast)       23250 del vars, 162750 del conss, 0 add conss, 236939 chg bounds, 23250 chg sides, 27 chg coeffs, 0 upgd conss, 0 impls, 0 clqs
(round 3, fast)       108281 del vars, 168232 del conss, 0 add conss, 236939 chg bounds, 23250 chg sides, 27 chg coeffs, 0 upgd conss, 0 impls, 0 clqs
   (2.7s) running MILP presolver
   (3.3s) MILP presolver (4 rounds): 15459 aggregations, 52812 fixings, 49 bound changes
(round 4, medium)     176552 del vars, 209593 del conss, 25902 add conss, 236988 chg bounds, 23250 chg sides, 27 chg coeffs, 0 upgd conss, 0 impls, 0 clqs
(round 5, fast)       176796 del vars, 209593 del conss, 25902 add conss, 236988 chg bounds, 23250 chg sides, 27 chg coeffs, 0 upgd conss, 0 impls, 0 clqs
(round 6, fast)       176796 del vars, 209593 del conss, 25902 add conss, 236988 chg bounds, 23494 chg sides, 27 chg coeffs, 0 upgd conss, 0 impls, 0 clqs
(round 7, exhaustive) 176796 del vars, 209606 del conss, 25902 add conss, 236988 chg bounds, 23507 chg sides, 27 chg coeffs, 0 upgd conss, 0 impls, 0 clqs
(round 8, exhaustive) 176796 del vars, 209606 del conss, 25902 add conss, 236988 chg bounds, 23507 chg sides, 27 chg coeffs, 22181 upgd conss, 0 impls, 0 clqs
   (4.7s) probing: 51/93 (54.8%) - 0 fixings, 0 aggregations, 0 implications, 0 bound changes
   (4.7s) probing aborted: 50/50 successive totally useless probings
   (4.9s) symmetry computation started: requiring (bin +, int -, cont +), (fixed: bin -, int +, cont -)
   (5.1s) symmetry computation finished: 1 generators found (max: 1500, log10 of symmetry group size: 0.3)
   (5.1s) no symmetry on binary variables present.
presolving (9 rounds: 9 fast, 4 medium, 3 exhaustive):
 176796 deleted vars, 209606 deleted constraints, 25903 added constraints, 236988 tightened bounds, 0 added holes, 23507 changed sides, 27 changed coefficients
 22181 implications, 0 cliques
presolved problem has 32547 variables (93 bin, 0 int, 0 impl, 32454 cont) and 25890 constraints
  22181 constraints of type <varbound>
   3709 constraints of type <linear>
Presolving Time: 4.45

 time | node  | left  |LP iter|LP it/n|mem/heur|mdpt |vars |cons |rows |cuts |sepa|confs|strbr|  dualbound   | primalbound  |  gap   | compl. 
p 6.9s|     1 |     0 |  7318 |     - |   locks|   0 |  32k|  25k|  25k|   0 |  0 |   0 |   0 |-1.447178e+08 | 9.272230e+05 |    Inf | unknown
 25.2s|     1 |     0 | 25080 |     - |   860M |   0 |  32k|  25k|  25k|   0 |  0 |   0 |   0 | 8.663635e+05 | 9.272230e+05 |   7.02%| unknown
r25.2s|     1 |     0 | 25080 |     - |simplero|   0 |  32k|  25k|  25k|   0 |  0 |   0 |   0 | 8.663635e+05 | 8.701560e+05 |   0.44%| unknown
 25.5s|     1 |     0 | 25080 |     - |   871M |   0 |  32k|  24k|  25k|   0 |  2 |   0 |   0 | 8.663635e+05 | 8.701560e+05 |   0.44%| unknown
d26.1s|     1 |     0 | 25222 |     - |farkasdi|   0 |  32k|  24k|  25k|   0 |  4 |   0 |   0 | 8.663635e+05 | 8.701390e+05 |   0.44%| unknown
d26.1s|     1 |     0 | 25245 |     - |farkasdi|   0 |  32k|  24k|  25k|   0 |  4 |   0 |   0 | 8.663635e+05 | 8.700940e+05 |   0.43%| unknown
d26.3s|     1 |     0 | 25266 |     - |farkasdi|   0 |  32k|  24k|  25k|   0 |  4 |   0 |   0 | 8.663635e+05 | 8.698110e+05 |   0.40%| unknown
d26.5s|     1 |     0 | 25343 |     - |farkasdi|   0 |  32k|  24k|  25k|   0 |  4 |   0 |   0 | 8.663635e+05 | 8.697390e+05 |   0.39%| unknown
 29.5s|     1 |     0 | 26113 |     - |   946M |   0 |  32k|  24k|  25k|   0 |  4 |   2 |   0 | 8.663635e+05 | 8.697390e+05 |   0.39%| unknown
 29.5s|     1 |     0 | 26113 |     - |   949M |   0 |  32k|  24k|  23k|   0 |  4 |   2 |   0 | 8.663635e+05 | 8.697390e+05 |   0.39%| unknown
 29.7s|     1 |     2 | 26113 |     - |   951M |   0 |  32k|  23k|  23k|   0 |  6 |   2 |   0 | 8.663635e+05 | 8.697390e+05 |   0.39%| unknown
(run 1, node 1) restarting after 9 global fixings of integer variables

presolving:
(round 1, exhaustive) 9 del vars, 31 del conss, 0 add conss, 0 chg bounds, 31 chg sides, 0 chg coeffs, 0 upgd conss, 22181 impls, 0 clqs
presolving (2 rounds: 2 fast, 2 medium, 2 exhaustive):
 9 deleted vars, 35 deleted constraints, 0 added constraints, 0 tightened bounds, 0 added holes, 35 changed sides, 0 changed coefficients
 22181 implications, 0 cliques
presolved problem has 32538 variables (84 bin, 0 int, 0 impl, 32454 cont) and 23707 constraints
  20032 constraints of type <varbound>
   3675 constraints of type <linear>
Presolving Time: 6.99
transformed 27/27 original solutions to the transformed problem space

 time | node  | left  |LP iter|LP it/n|mem/heur|mdpt |vars |cons |rows |cuts |sepa|confs|strbr|  dualbound   | primalbound  |  gap   | compl. 
 52.5s|     1 |     0 | 44973 |     - |  1052M |   0 |  32k|  23k|  23k|   0 |  0 |   2 |   0 | 8.663635e+05 | 8.697390e+05 |   0.39%| unknown
 52.8s|     1 |     0 | 44976 |     - |  1055M |   0 |  32k|  23k|  23k|   1 |  1 |   2 |   0 | 8.663635e+05 | 8.697390e+05 |   0.39%| unknown
 55.4s|     1 |     2 | 45468 |     - |  1098M |   0 |  32k|  23k|  23k|   1 |  3 |   2 |   0 | 8.663635e+05 | 8.697390e+05 |   0.39%| unknown
*56.4s|    16 |    13 | 45749 | 570.2 |    LP  |  14 |  32k|  23k|  23k|   1 |  1 |   2 |   0 | 8.663635e+05 | 8.696690e+05 |   0.38%| unknown
 62.2s|   100 |    79 | 47227 | 106.0 |  1280M |  16 |  32k|  23k|  23k|   2 |  1 |   2 |   0 | 8.663746e+05 | 8.696690e+05 |   0.38%| unknown
 75.9s|   200 |   159 | 50109 |  67.4 |  1294M |  16 |  32k|  23k|  23k|   6 |  1 |   2 |   0 | 8.663763e+05 | 8.696690e+05 |   0.38%| unknown
L79.0s|   216 |   171 | 50363 |  63.6 |    rins|  16 |  32k|  23k|  23k|   6 |  1 |   2 |   0 | 8.663763e+05 | 8.694860e+05 |   0.36%| unknown
r80.2s|   229 |   169 | 50609 |  61.1 |simplero|  16 |  32k|  23k|  23k|   7 |  0 |   2 |   0 | 8.663763e+05 | 8.671160e+05 |   0.09%| unknown
d83.7s|   258 |   190 | 51602 |  58.1 |guideddi|  16 |  32k|  23k|  23k|   0 |  2 |   3 |   0 | 8.663907e+05 | 8.670620e+05 |   0.08%| unknown
r88.8s|   300 |   173 | 52585 |  53.2 |simplero|  16 |  32k|  23k|  23k|   8 |  0 |   7 |   0 | 8.664032e+05 | 8.668180e+05 |   0.05%|   4.12%
 95.9s|   400 |   155 | 53853 |  43.1 |  1308M |  16 |  32k|  23k|  23k|   9 |  2 |   7 |   0 | 8.664961e+05 | 8.668180e+05 |   0.04%|  28.53%
  103s|   500 |    82 | 54536 |  35.8 |  1309M |  16 |  32k|  23k|  23k|  11 |  0 |   7 |   0 | 8.665982e+05 | 8.668180e+05 |   0.03%|  75.16%

SCIP Status        : problem is solved [optimal solution found]
Solving Time (sec) : 107.61
Solving Nodes      : 585 (total of 586 nodes in 2 runs)
Primal Bound       : +8.66818000000000e+05 (288 solutions)
Dual Bound         : +8.66818000000000e+05
Gap                : 0.00 %
Solve Status: optimal
Solve Time: 107.74 seconds
Objective Value: 866818.00
